5 47 38 78 12 81 84 28 98 20 22 74 97 56 
72 21 62 64 66 11 52 76 24 37 
85 65 70 100 3 41 29 90 96 13 4 
69 27 
42 
23 10 43 45 25 35 
17 
54 44 
86 2 
15 63 94 79 16 32 26 1 50 80 46 77 
71 59 40 
68 7 
19 8 30 36 61 49 67 9 34 60 
75 93 48 
39 88 82 51 83 92 95 33 31 99 6 73 87 57 18 53 14 91 55 58 89 

